c Grafo no formato DIMACS 
p edge 70 223 
e 1 56 
e 1 37 
e 1 32 
e 1 8 
e 1 5 
e 2 46 
e 2 32 
e 2 17 
e 3 56 
e 3 48 
e 3 44 
e 3 43 
e 3 27 
e 3 25 
e 3 24 
e 4 36 
e 4 16 
e 4 10 
e 5 65 
e 5 59 
e 5 55 
e 5 54 
e 5 49 
e 5 47 
e 5 46 
e 5 35 
e 5 34 
e 5 16 
e 5 11 
e 5 7 
e 6 64 
e 6 51 
e 6 38 
e 6 33 
e 6 19 
e 6 15 
e 6 14 
e 7 67 
e 7 61 
e 7 57 
e 7 50 
e 7 45 
e 7 42 
e 7 17 
e 7 8 
e 8 64 
e 8 61 
e 8 48 
e 8 41 
e 8 36 
e 8 11 
e 9 52 
e 9 49 
e 9 48 
e 9 30 
e 9 17 
e 9 12 
e 10 58 
e 10 53 
e 10 36 
e 10 28 
e 10 26 
e 10 20 
e 10 16 
e 10 13 
e 11 52 
e 11 49 
e 12 69 
e 12 50 
e 12 45 
e 12 34 
e 13 53 
e 13 38 
e 13 18 
e 14 68 
e 14 63 
e 14 55 
e 14 53 
e 14 49 
e 14 48 
e 14 44 
e 14 37 
e 14 21 
e 15 60 
e 15 55 
e 15 39 
e 15 28 
e 15 26 
e 15 25 
e 16 53 
e 16 51 
e 16 47 
e 16 43 
e 16 25 
e 17 63 
e 17 61 
e 17 41 
e 17 40 
e 17 33 
e 17 28 
e 17 27 
e 18 67 
e 18 58 
e 18 47 
e 18 29 
e 18 25 
e 19 66 
e 19 55 
e 19 40 
e 19 38 
e 19 37 
e 19 20 
e 20 70 
e 20 68 
e 20 56 
e 20 48 
e 21 62 
e 21 41 
e 21 30 
e 21 28 
e 22 69 
e 22 61 
e 22 52 
e 22 50 
e 22 46 
e 22 39 
e 22 33 
e 22 24 
e 23 42 
e 23 26 
e 24 65 
e 24 54 
e 24 53 
e 24 52 
e 25 55 
e 25 40 
e 25 31 
e 26 69 
e 26 62 
e 26 61 
e 26 48 
e 26 33 
e 27 46 
e 27 31 
e 28 68 
e 28 45 
e 28 36 
e 29 54 
e 29 53 
e 29 38 
e 30 48 
e 31 37 
e 32 52 
e 32 50 
e 33 69 
e 33 48 
e 33 46 
e 33 40 
e 33 35 
e 34 65 
e 34 57 
e 34 35 
e 36 54 
e 36 49 
e 37 68 
e 37 67 
e 37 59 
e 37 58 
e 37 56 
e 37 51 
e 37 48 
e 38 42 
e 39 69 
e 39 60 
e 39 49 
e 39 48 
e 41 70 
e 41 57 
e 42 59 
e 43 69 
e 43 66 
e 43 64 
e 43 63 
e 43 51 
e 44 68 
e 44 54 
e 45 65 
e 45 61 
e 45 57 
e 45 54 
e 46 56 
e 46 51 
e 47 65 
e 48 66 
e 48 65 
e 48 63 
e 48 58 
e 49 64 
e 49 55 
e 49 53 
e 51 69 
e 51 63 
e 52 69 
e 52 63 
e 52 53 
e 53 62 
e 54 64 
e 54 63 
e 54 56 
e 55 68 
e 55 57 
e 56 64 
e 56 58 
e 59 69 
e 60 69 
e 61 65 
e 61 63 
e 62 69 
e 62 63 
e 64 65 
e 65 69 
e 67 70 
e 67 68 
